(benchmark fifo32bc04k05.smt
:source {
This benchmark comes from bounded model checking of two fifo implementations.
The fifos are resetted once at the beginning. We show that the
implementations are behaviorally equivalent up to a bound of 5 clock cycles.
Fifo inputs: 'enqueue', 'dequeue', 'reset' (active low) and 'data_in'.
Fifo output: 'empty', 'full' and 'data_out'.
Bit-width: 32
The fifos have an internal memory of size 16, respectively modelled as array.

Contributed by Robert Brummayer (robert.brummayer@gmail.com).
}
:status unsat
:category { crafted }
:logic QF_AUFBV
:extrafuns ((head_fs_0 BitVec[4]))
:extrafuns ((tail_fs_0 BitVec[4]))
:extrafuns ((full_fs_0 BitVec[1]))
:extrafuns ((empty_fs_0 BitVec[1]))
:extrafuns ((data_out_fs_0 BitVec[32]))
:extrafuns ((head_fq_0 BitVec[4]))
:extrafuns ((tail_fq_0 BitVec[4]))
:extrafuns ((full_fq_0 BitVec[1]))
:extrafuns ((empty_fq_0 BitVec[1]))
:extrafuns ((data_out_fq_0 BitVec[32]))
:extrafuns ((reset_0 BitVec[1]))
:extrafuns ((a30 Array[4:32]))
:extrafuns ((a31 Array[4:32]))
:extrafuns ((enqeue_0 BitVec[1]))
:extrafuns ((deqeue_0 BitVec[1]))
:extrafuns ((data_in_0 BitVec[32]))
:extrafuns ((head_fs_1 BitVec[4]))
:extrafuns ((tail_fs_1 BitVec[4]))
:extrafuns ((full_fs_1 BitVec[1]))
:extrafuns ((empty_fs_1 BitVec[1]))
:extrafuns ((data_out_fs_1 BitVec[32]))
:extrafuns ((head_fq_1 BitVec[4]))
:extrafuns ((tail_fq_1 BitVec[4]))
:extrafuns ((full_fq_1 BitVec[1]))
:extrafuns ((empty_fq_1 BitVec[1]))
:extrafuns ((data_out_fq_1 BitVec[32]))
:extrafuns ((reset_1 BitVec[1]))
:extrafuns ((a158 Array[4:32]))
:extrafuns ((a159 Array[4:32]))
:extrafuns ((enqeue_1 BitVec[1]))
:extrafuns ((deqeue_1 BitVec[1]))
:extrafuns ((data_in_1 BitVec[32]))
:extrafuns ((head_fs_2 BitVec[4]))
:extrafuns ((tail_fs_2 BitVec[4]))
:extrafuns ((full_fs_2 BitVec[1]))
:extrafuns ((empty_fs_2 BitVec[1]))
:extrafuns ((data_out_fs_2 BitVec[32]))
:extrafuns ((head_fq_2 BitVec[4]))
:extrafuns ((tail_fq_2 BitVec[4]))
:extrafuns ((full_fq_2 BitVec[1]))
:extrafuns ((empty_fq_2 BitVec[1]))
:extrafuns ((data_out_fq_2 BitVec[32]))
:extrafuns ((reset_2 BitVec[1]))
:extrafuns ((a281 Array[4:32]))
:extrafuns ((a282 Array[4:32]))
:extrafuns ((enqeue_2 BitVec[1]))
:extrafuns ((deqeue_2 BitVec[1]))
:extrafuns ((data_in_2 BitVec[32]))
:extrafuns ((head_fs_3 BitVec[4]))
:extrafuns ((tail_fs_3 BitVec[4]))
:extrafuns ((full_fs_3 BitVec[1]))
:extrafuns ((empty_fs_3 BitVec[1]))
:extrafuns ((data_out_fs_3 BitVec[32]))
:extrafuns ((head_fq_3 BitVec[4]))
:extrafuns ((tail_fq_3 BitVec[4]))
:extrafuns ((full_fq_3 BitVec[1]))
:extrafuns ((empty_fq_3 BitVec[1]))
:extrafuns ((data_out_fq_3 BitVec[32]))
:extrafuns ((reset_3 BitVec[1]))
:extrafuns ((a404 Array[4:32]))
:extrafuns ((a405 Array[4:32]))
:extrafuns ((enqeue_3 BitVec[1]))
:extrafuns ((deqeue_3 BitVec[1]))
:extrafuns ((data_in_3 BitVec[32]))
:extrafuns ((head_fs_4 BitVec[4]))
:extrafuns ((tail_fs_4 BitVec[4]))
:extrafuns ((full_fs_4 BitVec[1]))
:extrafuns ((empty_fs_4 BitVec[1]))
:extrafuns ((data_out_fs_4 BitVec[32]))
:extrafuns ((head_fq_4 BitVec[4]))
:extrafuns ((tail_fq_4 BitVec[4]))
:extrafuns ((full_fq_4 BitVec[1]))
:extrafuns ((empty_fq_4 BitVec[1]))
:extrafuns ((data_out_fq_4 BitVec[32]))
:extrafuns ((reset_4 BitVec[1]))
:extrafuns ((a527 Array[4:32]))
:extrafuns ((a528 Array[4:32]))
:extrafuns ((enqeue_4 BitVec[1]))
:extrafuns ((deqeue_4 BitVec[1]))
:extrafuns ((data_in_4 BitVec[32]))
:extrafuns ((head_fs_5 BitVec[4]))
:extrafuns ((tail_fs_5 BitVec[4]))
:extrafuns ((full_fs_5 BitVec[1]))
:extrafuns ((empty_fs_5 BitVec[1]))
:extrafuns ((data_out_fs_5 BitVec[32]))
:extrafuns ((head_fq_5 BitVec[4]))
:extrafuns ((tail_fq_5 BitVec[4]))
:extrafuns ((full_fq_5 BitVec[1]))
:extrafuns ((empty_fq_5 BitVec[1]))
:extrafuns ((data_out_fq_5 BitVec[32]))
:extrafuns ((reset_5 BitVec[1]))
:extrafuns ((a650 Array[4:32]))
:extrafuns ((a651 Array[4:32]))
:formula
(let (?e1 bv0[4])
(let (?e2 bv1[4])
(let (?e3 bv2[4])
(let (?e4 bv3[4])
(let (?e5 bv4[4])
(let (?e6 bv5[4])
(let (?e7 bv6[4])
(let (?e8 bv7[4])
(let (?e9 bv8[4])
(let (?e10 bv9[4])
(let (?e11 bv10[4])
(let (?e12 bv11[4])
(let (?e13 bv12[4])
(let (?e14 bv13[4])
(let (?e15 bv14[4])
(let (?e16 bv15[4])
(let (?e17 bv0[1])
(let (?e18 bv1[1])
(let (?e32 (ite (= ?e1 head_fs_0) bv1[1] bv0[1]))
(let (?e33 (ite (= ?e1 tail_fs_0) bv1[1] bv0[1]))
(let (?e34 (bvand ?e32 ?e33))
(let (?e35 (bvand (bvnot full_fs_0) ?e34))
(let (?e36 (bvand (bvnot empty_fs_0) ?e35))
(let (?e37 bv0[32])
(let (?e38 (ite (= data_out_fs_0 ?e37) bv1[1] bv0[1]))
(let (?e39 (bvand ?e36 ?e38))
(let (?e40 (ite (= ?e1 head_fq_0) bv1[1] bv0[1]))
(let (?e41 (bvand ?e39 ?e40))
(let (?e42 (ite (= ?e1 tail_fq_0) bv1[1] bv0[1]))
(let (?e43 (bvand ?e41 ?e42))
(let (?e44 (bvand (bvnot full_fq_0) ?e43))
(let (?e45 (bvand (bvnot empty_fq_0) ?e44))
(let (?e46 (ite (= data_out_fq_0 ?e37) bv1[1] bv0[1]))
(let (?e47 (bvand ?e45 ?e46))
(let (?e48 (bvand (bvnot reset_0) ?e47))
(let (?e51 (bvand (bvnot enqeue_0) (bvnot deqeue_0)))
(let (?e52 (bvand enqeue_0 deqeue_0))
(let (?e53 (bvand (bvnot ?e51) (bvnot ?e52)))
(let (?e54 (bvadd ?e2 tail_fs_0))
(let (?e55 (ite (= bv1[1] full_fs_0) tail_fs_0 ?e54))
(let (?e56 (bvadd ?e16 tail_fs_0))
(let (?e57 (ite (= bv1[1] empty_fs_0) tail_fs_0 ?e56))
(let (?e58 (ite (= bv1[1] enqeue_0) ?e55 ?e57))
(let (?e59 (ite (= bv1[1] ?e53) ?e58 tail_fs_0))
(let (?e60 (ite (= bv1[1] reset_0) ?e59 ?e1))
(let (?e61 (ite (= ?e15 tail_fs_0) bv1[1] bv0[1]))
(let (?e62 (ite (= bv1[1] ?e61) ?e18 full_fs_0))
(let (?e63 (ite (= bv1[1] deqeue_0) ?e17 ?e62))
(let (?e64 (ite (= bv1[1] ?e53) ?e63 full_fs_0))
(let (?e65 (ite (= bv1[1] reset_0) ?e64 ?e17))
(let (?e66 (ite (= ?e2 tail_fs_0) bv1[1] bv0[1]))
(let (?e67 (ite (= bv1[1] ?e66) ?e18 empty_fs_0))
(let (?e68 (ite (= bv1[1] enqeue_0) ?e17 ?e67))
(let (?e69 (ite (= bv1[1] ?e53) ?e68 empty_fs_0))
(let (?e70 (ite (= bv1[1] reset_0) ?e69 ?e18))
(let (?e71 (bvand (bvnot empty_fs_0) deqeue_0))
(let (?e72 (select a30 head_fs_0))
(let (?e73 (ite (= bv1[1] ?e71) ?e72 data_out_fs_0))
(let (?e74 (ite (= bv1[1] ?e53) ?e73 data_out_fs_0))
(let (?e75 (ite (= bv1[1] reset_0) ?e74 data_out_fs_0))
(let (?e77 (store a30 tail_fs_0 data_in_0))
(let (?e78 (ite (= bv1[1] full_fs_0) a30 ?e77))
(let (?e79 (select a30 ?e2))
(let (?e80 (store a30 ?e1 ?e79))
(let (?e81 (select a30 ?e3))
(let (?e82 (store ?e80 ?e2 ?e81))
(let (?e83 (select a30 ?e4))
(let (?e84 (store ?e82 ?e3 ?e83))
(let (?e85 (select a30 ?e5))
(let (?e86 (store ?e84 ?e4 ?e85))
(let (?e87 (select a30 ?e6))
(let (?e88 (store ?e86 ?e5 ?e87))
(let (?e89 (select a30 ?e7))
(let (?e90 (store ?e88 ?e6 ?e89))
(let (?e91 (select a30 ?e8))
(let (?e92 (store ?e90 ?e7 ?e91))
(let (?e93 (select a30 ?e9))
(let (?e94 (store ?e92 ?e8 ?e93))
(let (?e95 (select a30 ?e10))
(let (?e96 (store ?e94 ?e9 ?e95))
(let (?e97 (select a30 ?e11))
(let (?e98 (store ?e96 ?e10 ?e97))
(let (?e99 (select a30 ?e12))
(let (?e100 (store ?e98 ?e11 ?e99))
(let (?e101 (select a30 ?e13))
(let (?e102 (store ?e100 ?e12 ?e101))
(let (?e103 (select a30 ?e14))
(let (?e104 (store ?e102 ?e13 ?e103))
(let (?e105 (select a30 ?e15))
(let (?e106 (store ?e104 ?e14 ?e105))
(let (?e107 (ite (= bv1[1] enqeue_0) ?e78 ?e106))
(let (?e108 (ite (= bv1[1] ?e53) ?e107 a30))
(let (?e109 (ite (= bv1[1] reset_0) ?e108 a30))
(let (?e110 (bvadd ?e2 head_fq_0))
(let (?e111 (ite (= bv1[1] empty_fq_0) head_fq_0 ?e110))
(let (?e112 (ite (= bv1[1] deqeue_0) ?e111 head_fq_0))
(let (?e113 (ite (= bv1[1] ?e53) ?e112 head_fq_0))
(let (?e114 (ite (= bv1[1] reset_0) ?e113 ?e1))
(let (?e115 (bvadd ?e2 tail_fq_0))
(let (?e116 (ite (= bv1[1] full_fq_0) tail_fq_0 ?e115))
(let (?e117 (ite (= bv1[1] enqeue_0) ?e116 tail_fq_0))
(let (?e118 (ite (= bv1[1] ?e53) ?e117 tail_fq_0))
(let (?e119 (ite (= bv1[1] reset_0) ?e118 ?e1))
(let (?e120 (bvadd ?e2 ?e115))
(let (?e121 (ite (= head_fq_0 ?e120) bv1[1] bv0[1]))
(let (?e122 (ite (= bv1[1] ?e121) ?e18 full_fq_0))
(let (?e123 (ite (= bv1[1] deqeue_0) ?e17 ?e122))
(let (?e124 (ite (= bv1[1] ?e53) ?e123 full_fq_0))
(let (?e125 (ite (= bv1[1] reset_0) ?e124 ?e17))
(let (?e126 (ite (= tail_fq_0 ?e110) bv1[1] bv0[1]))
(let (?e127 (ite (= bv1[1] ?e126) ?e18 empty_fq_0))
(let (?e128 (ite (= bv1[1] enqeue_0) ?e17 ?e127))
(let (?e129 (ite (= bv1[1] ?e53) ?e128 empty_fq_0))
(let (?e130 (ite (= bv1[1] reset_0) ?e129 ?e18))
(let (?e131 (bvand (bvnot empty_fq_0) deqeue_0))
(let (?e132 (select a31 head_fq_0))
(let (?e133 (ite (= bv1[1] ?e131) ?e132 data_out_fq_0))
(let (?e134 (ite (= bv1[1] ?e53) ?e133 data_out_fq_0))
(let (?e135 (ite (= bv1[1] reset_0) ?e134 data_out_fq_0))
(let (?e136 (store a31 tail_fq_0 data_in_0))
(let (?e137 (ite (= bv1[1] full_fq_0) a31 ?e136))
(let (?e138 (ite (= bv1[1] enqeue_0) ?e137 a31))
(let (?e139 (ite (= bv1[1] ?e53) ?e138 a31))
(let (?e140 (ite (= bv1[1] reset_0) ?e139 a31))
(let (?e141 (ite (= data_out_fs_0 data_out_fq_0) bv1[1] bv0[1]))
(let (?e142 (ite (= full_fs_0 full_fq_0) bv1[1] bv0[1]))
(let (?e143 (ite (= empty_fs_0 empty_fq_0) bv1[1] bv0[1]))
(let (?e144 (bvand ?e142 ?e143))
(let (?e145 (bvand ?e141 ?e144))
(let (?e146 (bvand reset_0 (bvnot ?e145)))
(let (?e160 (ite (= ?e1 head_fs_1) bv1[1] bv0[1]))
(let (?e163 (bvand (bvnot enqeue_1) (bvnot deqeue_1)))
(let (?e164 (bvand enqeue_1 deqeue_1))
(let (?e165 (bvand (bvnot ?e163) (bvnot ?e164)))
(let (?e166 (bvadd ?e2 tail_fs_1))
(let (?e167 (ite (= bv1[1] full_fs_1) tail_fs_1 ?e166))
(let (?e168 (bvadd ?e16 tail_fs_1))
(let (?e169 (ite (= bv1[1] empty_fs_1) tail_fs_1 ?e168))
(let (?e170 (ite (= bv1[1] enqeue_1) ?e167 ?e169))
(let (?e171 (ite (= bv1[1] ?e165) ?e170 tail_fs_1))
(let (?e172 (ite (= bv1[1] reset_1) ?e171 ?e1))
(let (?e173 (ite (= ?e60 tail_fs_1) bv1[1] bv0[1]))
(let (?e174 (ite (= ?e15 tail_fs_1) bv1[1] bv0[1]))
(let (?e175 (ite (= bv1[1] ?e174) ?e18 full_fs_1))
(let (?e176 (ite (= bv1[1] deqeue_1) ?e17 ?e175))
(let (?e177 (ite (= bv1[1] ?e165) ?e176 full_fs_1))
(let (?e178 (ite (= bv1[1] reset_1) ?e177 ?e17))
(let (?e179 (ite (= ?e65 full_fs_1) bv1[1] bv0[1]))
(let (?e180 (ite (= ?e2 tail_fs_1) bv1[1] bv0[1]))
(let (?e181 (ite (= bv1[1] ?e180) ?e18 empty_fs_1))
(let (?e182 (ite (= bv1[1] enqeue_1) ?e17 ?e181))
(let (?e183 (ite (= bv1[1] ?e165) ?e182 empty_fs_1))
(let (?e184 (ite (= bv1[1] reset_1) ?e183 ?e18))
(let (?e185 (ite (= ?e70 empty_fs_1) bv1[1] bv0[1]))
(let (?e186 (bvand (bvnot empty_fs_1) deqeue_1))
(let (?e187 (select a158 head_fs_1))
(let (?e188 (ite (= bv1[1] ?e186) ?e187 data_out_fs_1))
(let (?e189 (ite (= bv1[1] ?e165) ?e188 data_out_fs_1))
(let (?e190 (ite (= bv1[1] reset_1) ?e189 data_out_fs_1))
(let (?e191 (ite (= ?e75 data_out_fs_1) bv1[1] bv0[1]))
(let (?e193 (store a158 tail_fs_1 data_in_1))
(let (?e194 (ite (= bv1[1] full_fs_1) a158 ?e193))
(let (?e195 (select a158 ?e2))
(let (?e196 (store a158 ?e1 ?e195))
(let (?e197 (select a158 ?e3))
(let (?e198 (store ?e196 ?e2 ?e197))
(let (?e199 (select a158 ?e4))
(let (?e200 (store ?e198 ?e3 ?e199))
(let (?e201 (select a158 ?e5))
(let (?e202 (store ?e200 ?e4 ?e201))
(let (?e203 (select a158 ?e6))
(let (?e204 (store ?e202 ?e5 ?e203))
(let (?e205 (select a158 ?e7))
(let (?e206 (store ?e204 ?e6 ?e205))
(let (?e207 (select a158 ?e8))
(let (?e208 (store ?e206 ?e7 ?e207))
(let (?e209 (select a158 ?e9))
(let (?e210 (store ?e208 ?e8 ?e209))
(let (?e211 (select a158 ?e10))
(let (?e212 (store ?e210 ?e9 ?e211))
(let (?e213 (select a158 ?e11))
(let (?e214 (store ?e212 ?e10 ?e213))
(let (?e215 (select a158 ?e12))
(let (?e216 (store ?e214 ?e11 ?e215))
(let (?e217 (select a158 ?e13))
(let (?e218 (store ?e216 ?e12 ?e217))
(let (?e219 (select a158 ?e14))
(let (?e220 (store ?e218 ?e13 ?e219))
(let (?e221 (select a158 ?e15))
(let (?e222 (store ?e220 ?e14 ?e221))
(let (?e223 (ite (= bv1[1] enqeue_1) ?e194 ?e222))
(let (?e224 (ite (= bv1[1] ?e165) ?e223 a158))
(let (?e225 (ite (= bv1[1] reset_1) ?e224 a158))
(let (?e226 (ite (= ?e109 a158) bv1[1] bv0[1]))
(let (?e227 (bvadd ?e2 head_fq_1))
(let (?e228 (ite (= bv1[1] empty_fq_1) head_fq_1 ?e227))
(let (?e229 (ite (= bv1[1] deqeue_1) ?e228 head_fq_1))
(let (?e230 (ite (= bv1[1] ?e165) ?e229 head_fq_1))
(let (?e231 (ite (= bv1[1] reset_1) ?e230 ?e1))
(let (?e232 (ite (= ?e114 head_fq_1) bv1[1] bv0[1]))
(let (?e233 (bvadd ?e2 tail_fq_1))
(let (?e234 (ite (= bv1[1] full_fq_1) tail_fq_1 ?e233))
(let (?e235 (ite (= bv1[1] enqeue_1) ?e234 tail_fq_1))
(let (?e236 (ite (= bv1[1] ?e165) ?e235 tail_fq_1))
(let (?e237 (ite (= bv1[1] reset_1) ?e236 ?e1))
(let (?e238 (ite (= ?e119 tail_fq_1) bv1[1] bv0[1]))
(let (?e239 (bvadd ?e2 ?e233))
(let (?e240 (ite (= head_fq_1 ?e239) bv1[1] bv0[1]))
(let (?e241 (ite (= bv1[1] ?e240) ?e18 full_fq_1))
(let (?e242 (ite (= bv1[1] deqeue_1) ?e17 ?e241))
(let (?e243 (ite (= bv1[1] ?e165) ?e242 full_fq_1))
(let (?e244 (ite (= bv1[1] reset_1) ?e243 ?e17))
(let (?e245 (ite (= ?e125 full_fq_1) bv1[1] bv0[1]))
(let (?e246 (ite (= tail_fq_1 ?e227) bv1[1] bv0[1]))
(let (?e247 (ite (= bv1[1] ?e246) ?e18 empty_fq_1))
(let (?e248 (ite (= bv1[1] enqeue_1) ?e17 ?e247))
(let (?e249 (ite (= bv1[1] ?e165) ?e248 empty_fq_1))
(let (?e250 (ite (= bv1[1] reset_1) ?e249 ?e18))
(let (?e251 (ite (= ?e130 empty_fq_1) bv1[1] bv0[1]))
(let (?e252 (bvand (bvnot empty_fq_1) deqeue_1))
(let (?e253 (select a159 head_fq_1))
(let (?e254 (ite (= bv1[1] ?e252) ?e253 data_out_fq_1))
(let (?e255 (ite (= bv1[1] ?e165) ?e254 data_out_fq_1))
(let (?e256 (ite (= bv1[1] reset_1) ?e255 data_out_fq_1))
(let (?e257 (ite (= ?e135 data_out_fq_1) bv1[1] bv0[1]))
(let (?e258 (store a159 tail_fq_1 data_in_1))
(let (?e259 (ite (= bv1[1] full_fq_1) a159 ?e258))
(let (?e260 (ite (= bv1[1] enqeue_1) ?e259 a159))
(let (?e261 (ite (= bv1[1] ?e165) ?e260 a159))
(let (?e262 (ite (= bv1[1] reset_1) ?e261 a159))
(let (?e263 (ite (= ?e140 a159) bv1[1] bv0[1]))
(let (?e264 (ite (= data_out_fs_1 data_out_fq_1) bv1[1] bv0[1]))
(let (?e265 (ite (= full_fs_1 full_fq_1) bv1[1] bv0[1]))
(let (?e266 (ite (= empty_fs_1 empty_fq_1) bv1[1] bv0[1]))
(let (?e267 (bvand ?e265 ?e266))
(let (?e268 (bvand ?e264 ?e267))
(let (?e269 (bvand reset_1 (bvnot ?e268)))
(let (?e283 (ite (= ?e1 head_fs_2) bv1[1] bv0[1]))
(let (?e286 (bvand (bvnot enqeue_2) (bvnot deqeue_2)))
(let (?e287 (bvand enqeue_2 deqeue_2))
(let (?e288 (bvand (bvnot ?e286) (bvnot ?e287)))
(let (?e289 (bvadd ?e2 tail_fs_2))
(let (?e290 (ite (= bv1[1] full_fs_2) tail_fs_2 ?e289))
(let (?e291 (bvadd ?e16 tail_fs_2))
(let (?e292 (ite (= bv1[1] empty_fs_2) tail_fs_2 ?e291))
(let (?e293 (ite (= bv1[1] enqeue_2) ?e290 ?e292))
(let (?e294 (ite (= bv1[1] ?e288) ?e293 tail_fs_2))
(let (?e295 (ite (= bv1[1] reset_2) ?e294 ?e1))
(let (?e296 (ite (= ?e172 tail_fs_2) bv1[1] bv0[1]))
(let (?e297 (ite (= ?e15 tail_fs_2) bv1[1] bv0[1]))
(let (?e298 (ite (= bv1[1] ?e297) ?e18 full_fs_2))
(let (?e299 (ite (= bv1[1] deqeue_2) ?e17 ?e298))
(let (?e300 (ite (= bv1[1] ?e288) ?e299 full_fs_2))
(let (?e301 (ite (= bv1[1] reset_2) ?e300 ?e17))
(let (?e302 (ite (= ?e178 full_fs_2) bv1[1] bv0[1]))
(let (?e303 (ite (= ?e2 tail_fs_2) bv1[1] bv0[1]))
(let (?e304 (ite (= bv1[1] ?e303) ?e18 empty_fs_2))
(let (?e305 (ite (= bv1[1] enqeue_2) ?e17 ?e304))
(let (?e306 (ite (= bv1[1] ?e288) ?e305 empty_fs_2))
(let (?e307 (ite (= bv1[1] reset_2) ?e306 ?e18))
(let (?e308 (ite (= ?e184 empty_fs_2) bv1[1] bv0[1]))
(let (?e309 (bvand (bvnot empty_fs_2) deqeue_2))
(let (?e310 (select a281 head_fs_2))
(let (?e311 (ite (= bv1[1] ?e309) ?e310 data_out_fs_2))
(let (?e312 (ite (= bv1[1] ?e288) ?e311 data_out_fs_2))
(let (?e313 (ite (= bv1[1] reset_2) ?e312 data_out_fs_2))
(let (?e314 (ite (= ?e190 data_out_fs_2) bv1[1] bv0[1]))
(let (?e316 (store a281 tail_fs_2 data_in_2))
(let (?e317 (ite (= bv1[1] full_fs_2) a281 ?e316))
(let (?e318 (select a281 ?e2))
(let (?e319 (store a281 ?e1 ?e318))
(let (?e320 (select a281 ?e3))
(let (?e321 (store ?e319 ?e2 ?e320))
(let (?e322 (select a281 ?e4))
(let (?e323 (store ?e321 ?e3 ?e322))
(let (?e324 (select a281 ?e5))
(let (?e325 (store ?e323 ?e4 ?e324))
(let (?e326 (select a281 ?e6))
(let (?e327 (store ?e325 ?e5 ?e326))
(let (?e328 (select a281 ?e7))
(let (?e329 (store ?e327 ?e6 ?e328))
(let (?e330 (select a281 ?e8))
(let (?e331 (store ?e329 ?e7 ?e330))
(let (?e332 (select a281 ?e9))
(let (?e333 (store ?e331 ?e8 ?e332))
(let (?e334 (select a281 ?e10))
(let (?e335 (store ?e333 ?e9 ?e334))
(let (?e336 (select a281 ?e11))
(let (?e337 (store ?e335 ?e10 ?e336))
(let (?e338 (select a281 ?e12))
(let (?e339 (store ?e337 ?e11 ?e338))
(let (?e340 (select a281 ?e13))
(let (?e341 (store ?e339 ?e12 ?e340))
(let (?e342 (select a281 ?e14))
(let (?e343 (store ?e341 ?e13 ?e342))
(let (?e344 (select a281 ?e15))
(let (?e345 (store ?e343 ?e14 ?e344))
(let (?e346 (ite (= bv1[1] enqeue_2) ?e317 ?e345))
(let (?e347 (ite (= bv1[1] ?e288) ?e346 a281))
(let (?e348 (ite (= bv1[1] reset_2) ?e347 a281))
(let (?e349 (ite (= ?e225 a281) bv1[1] bv0[1]))
(let (?e350 (bvadd ?e2 head_fq_2))
(let (?e351 (ite (= bv1[1] empty_fq_2) head_fq_2 ?e350))
(let (?e352 (ite (= bv1[1] deqeue_2) ?e351 head_fq_2))
(let (?e353 (ite (= bv1[1] ?e288) ?e352 head_fq_2))
(let (?e354 (ite (= bv1[1] reset_2) ?e353 ?e1))
(let (?e355 (ite (= ?e231 head_fq_2) bv1[1] bv0[1]))
(let (?e356 (bvadd ?e2 tail_fq_2))
(let (?e357 (ite (= bv1[1] full_fq_2) tail_fq_2 ?e356))
(let (?e358 (ite (= bv1[1] enqeue_2) ?e357 tail_fq_2))
(let (?e359 (ite (= bv1[1] ?e288) ?e358 tail_fq_2))
(let (?e360 (ite (= bv1[1] reset_2) ?e359 ?e1))
(let (?e361 (ite (= ?e237 tail_fq_2) bv1[1] bv0[1]))
(let (?e362 (bvadd ?e2 ?e356))
(let (?e363 (ite (= head_fq_2 ?e362) bv1[1] bv0[1]))
(let (?e364 (ite (= bv1[1] ?e363) ?e18 full_fq_2))
(let (?e365 (ite (= bv1[1] deqeue_2) ?e17 ?e364))
(let (?e366 (ite (= bv1[1] ?e288) ?e365 full_fq_2))
(let (?e367 (ite (= bv1[1] reset_2) ?e366 ?e17))
(let (?e368 (ite (= ?e244 full_fq_2) bv1[1] bv0[1]))
(let (?e369 (ite (= tail_fq_2 ?e350) bv1[1] bv0[1]))
(let (?e370 (ite (= bv1[1] ?e369) ?e18 empty_fq_2))
(let (?e371 (ite (= bv1[1] enqeue_2) ?e17 ?e370))
(let (?e372 (ite (= bv1[1] ?e288) ?e371 empty_fq_2))
(let (?e373 (ite (= bv1[1] reset_2) ?e372 ?e18))
(let (?e374 (ite (= ?e250 empty_fq_2) bv1[1] bv0[1]))
(let (?e375 (bvand (bvnot empty_fq_2) deqeue_2))
(let (?e376 (select a282 head_fq_2))
(let (?e377 (ite (= bv1[1] ?e375) ?e376 data_out_fq_2))
(let (?e378 (ite (= bv1[1] ?e288) ?e377 data_out_fq_2))
(let (?e379 (ite (= bv1[1] reset_2) ?e378 data_out_fq_2))
(let (?e380 (ite (= ?e256 data_out_fq_2) bv1[1] bv0[1]))
(let (?e381 (store a282 tail_fq_2 data_in_2))
(let (?e382 (ite (= bv1[1] full_fq_2) a282 ?e381))
(let (?e383 (ite (= bv1[1] enqeue_2) ?e382 a282))
(let (?e384 (ite (= bv1[1] ?e288) ?e383 a282))
(let (?e385 (ite (= bv1[1] reset_2) ?e384 a282))
(let (?e386 (ite (= ?e262 a282) bv1[1] bv0[1]))
(let (?e387 (ite (= data_out_fs_2 data_out_fq_2) bv1[1] bv0[1]))
(let (?e388 (ite (= full_fs_2 full_fq_2) bv1[1] bv0[1]))
(let (?e389 (ite (= empty_fs_2 empty_fq_2) bv1[1] bv0[1]))
(let (?e390 (bvand ?e388 ?e389))
(let (?e391 (bvand ?e387 ?e390))
(let (?e392 (bvand reset_2 (bvnot ?e391)))
(let (?e406 (ite (= ?e1 head_fs_3) bv1[1] bv0[1]))
(let (?e409 (bvand (bvnot enqeue_3) (bvnot deqeue_3)))
(let (?e410 (bvand enqeue_3 deqeue_3))
(let (?e411 (bvand (bvnot ?e409) (bvnot ?e410)))
(let (?e412 (bvadd ?e2 tail_fs_3))
(let (?e413 (ite (= bv1[1] full_fs_3) tail_fs_3 ?e412))
(let (?e414 (bvadd ?e16 tail_fs_3))
(let (?e415 (ite (= bv1[1] empty_fs_3) tail_fs_3 ?e414))
(let (?e416 (ite (= bv1[1] enqeue_3) ?e413 ?e415))
(let (?e417 (ite (= bv1[1] ?e411) ?e416 tail_fs_3))
(let (?e418 (ite (= bv1[1] reset_3) ?e417 ?e1))
(let (?e419 (ite (= ?e295 tail_fs_3) bv1[1] bv0[1]))
(let (?e420 (ite (= ?e15 tail_fs_3) bv1[1] bv0[1]))
(let (?e421 (ite (= bv1[1] ?e420) ?e18 full_fs_3))
(let (?e422 (ite (= bv1[1] deqeue_3) ?e17 ?e421))
(let (?e423 (ite (= bv1[1] ?e411) ?e422 full_fs_3))
(let (?e424 (ite (= bv1[1] reset_3) ?e423 ?e17))
(let (?e425 (ite (= ?e301 full_fs_3) bv1[1] bv0[1]))
(let (?e426 (ite (= ?e2 tail_fs_3) bv1[1] bv0[1]))
(let (?e427 (ite (= bv1[1] ?e426) ?e18 empty_fs_3))
(let (?e428 (ite (= bv1[1] enqeue_3) ?e17 ?e427))
(let (?e429 (ite (= bv1[1] ?e411) ?e428 empty_fs_3))
(let (?e430 (ite (= bv1[1] reset_3) ?e429 ?e18))
(let (?e431 (ite (= ?e307 empty_fs_3) bv1[1] bv0[1]))
(let (?e432 (bvand (bvnot empty_fs_3) deqeue_3))
(let (?e433 (select a404 head_fs_3))
(let (?e434 (ite (= bv1[1] ?e432) ?e433 data_out_fs_3))
(let (?e435 (ite (= bv1[1] ?e411) ?e434 data_out_fs_3))
(let (?e436 (ite (= bv1[1] reset_3) ?e435 data_out_fs_3))
(let (?e437 (ite (= ?e313 data_out_fs_3) bv1[1] bv0[1]))
(let (?e439 (store a404 tail_fs_3 data_in_3))
(let (?e440 (ite (= bv1[1] full_fs_3) a404 ?e439))
(let (?e441 (select a404 ?e2))
(let (?e442 (store a404 ?e1 ?e441))
(let (?e443 (select a404 ?e3))
(let (?e444 (store ?e442 ?e2 ?e443))
(let (?e445 (select a404 ?e4))
(let (?e446 (store ?e444 ?e3 ?e445))
(let (?e447 (select a404 ?e5))
(let (?e448 (store ?e446 ?e4 ?e447))
(let (?e449 (select a404 ?e6))
(let (?e450 (store ?e448 ?e5 ?e449))
(let (?e451 (select a404 ?e7))
(let (?e452 (store ?e450 ?e6 ?e451))
(let (?e453 (select a404 ?e8))
(let (?e454 (store ?e452 ?e7 ?e453))
(let (?e455 (select a404 ?e9))
(let (?e456 (store ?e454 ?e8 ?e455))
(let (?e457 (select a404 ?e10))
(let (?e458 (store ?e456 ?e9 ?e457))
(let (?e459 (select a404 ?e11))
(let (?e460 (store ?e458 ?e10 ?e459))
(let (?e461 (select a404 ?e12))
(let (?e462 (store ?e460 ?e11 ?e461))
(let (?e463 (select a404 ?e13))
(let (?e464 (store ?e462 ?e12 ?e463))
(let (?e465 (select a404 ?e14))
(let (?e466 (store ?e464 ?e13 ?e465))
(let (?e467 (select a404 ?e15))
(let (?e468 (store ?e466 ?e14 ?e467))
(let (?e469 (ite (= bv1[1] enqeue_3) ?e440 ?e468))
(let (?e470 (ite (= bv1[1] ?e411) ?e469 a404))
(let (?e471 (ite (= bv1[1] reset_3) ?e470 a404))
(let (?e472 (ite (= ?e348 a404) bv1[1] bv0[1]))
(let (?e473 (bvadd ?e2 head_fq_3))
(let (?e474 (ite (= bv1[1] empty_fq_3) head_fq_3 ?e473))
(let (?e475 (ite (= bv1[1] deqeue_3) ?e474 head_fq_3))
(let (?e476 (ite (= bv1[1] ?e411) ?e475 head_fq_3))
(let (?e477 (ite (= bv1[1] reset_3) ?e476 ?e1))
(let (?e478 (ite (= ?e354 head_fq_3) bv1[1] bv0[1]))
(let (?e479 (bvadd ?e2 tail_fq_3))
(let (?e480 (ite (= bv1[1] full_fq_3) tail_fq_3 ?e479))
(let (?e481 (ite (= bv1[1] enqeue_3) ?e480 tail_fq_3))
(let (?e482 (ite (= bv1[1] ?e411) ?e481 tail_fq_3))
(let (?e483 (ite (= bv1[1] reset_3) ?e482 ?e1))
(let (?e484 (ite (= ?e360 tail_fq_3) bv1[1] bv0[1]))
(let (?e485 (bvadd ?e2 ?e479))
(let (?e486 (ite (= head_fq_3 ?e485) bv1[1] bv0[1]))
(let (?e487 (ite (= bv1[1] ?e486) ?e18 full_fq_3))
(let (?e488 (ite (= bv1[1] deqeue_3) ?e17 ?e487))
(let (?e489 (ite (= bv1[1] ?e411) ?e488 full_fq_3))
(let (?e490 (ite (= bv1[1] reset_3) ?e489 ?e17))
(let (?e491 (ite (= ?e367 full_fq_3) bv1[1] bv0[1]))
(let (?e492 (ite (= tail_fq_3 ?e473) bv1[1] bv0[1]))
(let (?e493 (ite (= bv1[1] ?e492) ?e18 empty_fq_3))
(let (?e494 (ite (= bv1[1] enqeue_3) ?e17 ?e493))
(let (?e495 (ite (= bv1[1] ?e411) ?e494 empty_fq_3))
(let (?e496 (ite (= bv1[1] reset_3) ?e495 ?e18))
(let (?e497 (ite (= ?e373 empty_fq_3) bv1[1] bv0[1]))
(let (?e498 (bvand (bvnot empty_fq_3) deqeue_3))
(let (?e499 (select a405 head_fq_3))
(let (?e500 (ite (= bv1[1] ?e498) ?e499 data_out_fq_3))
(let (?e501 (ite (= bv1[1] ?e411) ?e500 data_out_fq_3))
(let (?e502 (ite (= bv1[1] reset_3) ?e501 data_out_fq_3))
(let (?e503 (ite (= ?e379 data_out_fq_3) bv1[1] bv0[1]))
(let (?e504 (store a405 tail_fq_3 data_in_3))
(let (?e505 (ite (= bv1[1] full_fq_3) a405 ?e504))
(let (?e506 (ite (= bv1[1] enqeue_3) ?e505 a405))
(let (?e507 (ite (= bv1[1] ?e411) ?e506 a405))
(let (?e508 (ite (= bv1[1] reset_3) ?e507 a405))
(let (?e509 (ite (= ?e385 a405) bv1[1] bv0[1]))
(let (?e510 (ite (= data_out_fs_3 data_out_fq_3) bv1[1] bv0[1]))
(let (?e511 (ite (= full_fs_3 full_fq_3) bv1[1] bv0[1]))
(let (?e512 (ite (= empty_fs_3 empty_fq_3) bv1[1] bv0[1]))
(let (?e513 (bvand ?e511 ?e512))
(let (?e514 (bvand ?e510 ?e513))
(let (?e515 (bvand reset_3 (bvnot ?e514)))
(let (?e529 (ite (= ?e1 head_fs_4) bv1[1] bv0[1]))
(let (?e532 (bvand (bvnot enqeue_4) (bvnot deqeue_4)))
(let (?e533 (bvand enqeue_4 deqeue_4))
(let (?e534 (bvand (bvnot ?e532) (bvnot ?e533)))
(let (?e535 (bvadd ?e2 tail_fs_4))
(let (?e536 (ite (= bv1[1] full_fs_4) tail_fs_4 ?e535))
(let (?e537 (bvadd ?e16 tail_fs_4))
(let (?e538 (ite (= bv1[1] empty_fs_4) tail_fs_4 ?e537))
(let (?e539 (ite (= bv1[1] enqeue_4) ?e536 ?e538))
(let (?e540 (ite (= bv1[1] ?e534) ?e539 tail_fs_4))
(let (?e541 (ite (= bv1[1] reset_4) ?e540 ?e1))
(let (?e542 (ite (= ?e418 tail_fs_4) bv1[1] bv0[1]))
(let (?e543 (ite (= ?e15 tail_fs_4) bv1[1] bv0[1]))
(let (?e544 (ite (= bv1[1] ?e543) ?e18 full_fs_4))
(let (?e545 (ite (= bv1[1] deqeue_4) ?e17 ?e544))
(let (?e546 (ite (= bv1[1] ?e534) ?e545 full_fs_4))
(let (?e547 (ite (= bv1[1] reset_4) ?e546 ?e17))
(let (?e548 (ite (= ?e424 full_fs_4) bv1[1] bv0[1]))
(let (?e549 (ite (= ?e2 tail_fs_4) bv1[1] bv0[1]))
(let (?e550 (ite (= bv1[1] ?e549) ?e18 empty_fs_4))
(let (?e551 (ite (= bv1[1] enqeue_4) ?e17 ?e550))
(let (?e552 (ite (= bv1[1] ?e534) ?e551 empty_fs_4))
(let (?e553 (ite (= bv1[1] reset_4) ?e552 ?e18))
(let (?e554 (ite (= ?e430 empty_fs_4) bv1[1] bv0[1]))
(let (?e555 (bvand (bvnot empty_fs_4) deqeue_4))
(let (?e556 (select a527 head_fs_4))
(let (?e557 (ite (= bv1[1] ?e555) ?e556 data_out_fs_4))
(let (?e558 (ite (= bv1[1] ?e534) ?e557 data_out_fs_4))
(let (?e559 (ite (= bv1[1] reset_4) ?e558 data_out_fs_4))
(let (?e560 (ite (= ?e436 data_out_fs_4) bv1[1] bv0[1]))
(let (?e562 (store a527 tail_fs_4 data_in_4))
(let (?e563 (ite (= bv1[1] full_fs_4) a527 ?e562))
(let (?e564 (select a527 ?e2))
(let (?e565 (store a527 ?e1 ?e564))
(let (?e566 (select a527 ?e3))
(let (?e567 (store ?e565 ?e2 ?e566))
(let (?e568 (select a527 ?e4))
(let (?e569 (store ?e567 ?e3 ?e568))
(let (?e570 (select a527 ?e5))
(let (?e571 (store ?e569 ?e4 ?e570))
(let (?e572 (select a527 ?e6))
(let (?e573 (store ?e571 ?e5 ?e572))
(let (?e574 (select a527 ?e7))
(let (?e575 (store ?e573 ?e6 ?e574))
(let (?e576 (select a527 ?e8))
(let (?e577 (store ?e575 ?e7 ?e576))
(let (?e578 (select a527 ?e9))
(let (?e579 (store ?e577 ?e8 ?e578))
(let (?e580 (select a527 ?e10))
(let (?e581 (store ?e579 ?e9 ?e580))
(let (?e582 (select a527 ?e11))
(let (?e583 (store ?e581 ?e10 ?e582))
(let (?e584 (select a527 ?e12))
(let (?e585 (store ?e583 ?e11 ?e584))
(let (?e586 (select a527 ?e13))
(let (?e587 (store ?e585 ?e12 ?e586))
(let (?e588 (select a527 ?e14))
(let (?e589 (store ?e587 ?e13 ?e588))
(let (?e590 (select a527 ?e15))
(let (?e591 (store ?e589 ?e14 ?e590))
(let (?e592 (ite (= bv1[1] enqeue_4) ?e563 ?e591))
(let (?e593 (ite (= bv1[1] ?e534) ?e592 a527))
(let (?e594 (ite (= bv1[1] reset_4) ?e593 a527))
(let (?e595 (ite (= ?e471 a527) bv1[1] bv0[1]))
(let (?e596 (bvadd ?e2 head_fq_4))
(let (?e597 (ite (= bv1[1] empty_fq_4) head_fq_4 ?e596))
(let (?e598 (ite (= bv1[1] deqeue_4) ?e597 head_fq_4))
(let (?e599 (ite (= bv1[1] ?e534) ?e598 head_fq_4))
(let (?e600 (ite (= bv1[1] reset_4) ?e599 ?e1))
(let (?e601 (ite (= ?e477 head_fq_4) bv1[1] bv0[1]))
(let (?e602 (bvadd ?e2 tail_fq_4))
(let (?e603 (ite (= bv1[1] full_fq_4) tail_fq_4 ?e602))
(let (?e604 (ite (= bv1[1] enqeue_4) ?e603 tail_fq_4))
(let (?e605 (ite (= bv1[1] ?e534) ?e604 tail_fq_4))
(let (?e606 (ite (= bv1[1] reset_4) ?e605 ?e1))
(let (?e607 (ite (= ?e483 tail_fq_4) bv1[1] bv0[1]))
(let (?e608 (bvadd ?e2 ?e602))
(let (?e609 (ite (= head_fq_4 ?e608) bv1[1] bv0[1]))
(let (?e610 (ite (= bv1[1] ?e609) ?e18 full_fq_4))
(let (?e611 (ite (= bv1[1] deqeue_4) ?e17 ?e610))
(let (?e612 (ite (= bv1[1] ?e534) ?e611 full_fq_4))
(let (?e613 (ite (= bv1[1] reset_4) ?e612 ?e17))
(let (?e614 (ite (= ?e490 full_fq_4) bv1[1] bv0[1]))
(let (?e615 (ite (= tail_fq_4 ?e596) bv1[1] bv0[1]))
(let (?e616 (ite (= bv1[1] ?e615) ?e18 empty_fq_4))
(let (?e617 (ite (= bv1[1] enqeue_4) ?e17 ?e616))
(let (?e618 (ite (= bv1[1] ?e534) ?e617 empty_fq_4))
(let (?e619 (ite (= bv1[1] reset_4) ?e618 ?e18))
(let (?e620 (ite (= ?e496 empty_fq_4) bv1[1] bv0[1]))
(let (?e621 (bvand (bvnot empty_fq_4) deqeue_4))
(let (?e622 (select a528 head_fq_4))
(let (?e623 (ite (= bv1[1] ?e621) ?e622 data_out_fq_4))
(let (?e624 (ite (= bv1[1] ?e534) ?e623 data_out_fq_4))
(let (?e625 (ite (= bv1[1] reset_4) ?e624 data_out_fq_4))
(let (?e626 (ite (= ?e502 data_out_fq_4) bv1[1] bv0[1]))
(let (?e627 (store a528 tail_fq_4 data_in_4))
(let (?e628 (ite (= bv1[1] full_fq_4) a528 ?e627))
(let (?e629 (ite (= bv1[1] enqeue_4) ?e628 a528))
(let (?e630 (ite (= bv1[1] ?e534) ?e629 a528))
(let (?e631 (ite (= bv1[1] reset_4) ?e630 a528))
(let (?e632 (ite (= ?e508 a528) bv1[1] bv0[1]))
(let (?e633 (ite (= data_out_fs_4 data_out_fq_4) bv1[1] bv0[1]))
(let (?e634 (ite (= full_fs_4 full_fq_4) bv1[1] bv0[1]))
(let (?e635 (ite (= empty_fs_4 empty_fq_4) bv1[1] bv0[1]))
(let (?e636 (bvand ?e634 ?e635))
(let (?e637 (bvand ?e633 ?e636))
(let (?e638 (bvand reset_4 (bvnot ?e637)))
(let (?e652 (ite (= ?e1 head_fs_5) bv1[1] bv0[1]))
(let (?e653 (ite (= ?e541 tail_fs_5) bv1[1] bv0[1]))
(let (?e654 (ite (= ?e547 full_fs_5) bv1[1] bv0[1]))
(let (?e655 (ite (= ?e553 empty_fs_5) bv1[1] bv0[1]))
(let (?e656 (ite (= ?e559 data_out_fs_5) bv1[1] bv0[1]))
(let (?e657 (ite (= ?e594 a650) bv1[1] bv0[1]))
(let (?e658 (ite (= ?e600 head_fq_5) bv1[1] bv0[1]))
(let (?e659 (ite (= ?e606 tail_fq_5) bv1[1] bv0[1]))
(let (?e660 (ite (= ?e613 full_fq_5) bv1[1] bv0[1]))
(let (?e661 (ite (= ?e619 empty_fq_5) bv1[1] bv0[1]))
(let (?e662 (ite (= ?e625 data_out_fq_5) bv1[1] bv0[1]))
(let (?e663 (ite (= ?e631 a651) bv1[1] bv0[1]))
(let (?e664 (ite (= data_out_fs_5 data_out_fq_5) bv1[1] bv0[1]))
(let (?e665 (ite (= full_fs_5 full_fq_5) bv1[1] bv0[1]))
(let (?e666 (ite (= empty_fs_5 empty_fq_5) bv1[1] bv0[1]))
(let (?e667 (bvand ?e665 ?e666))
(let (?e668 (bvand ?e664 ?e667))
(let (?e669 (bvand ?e48 (bvnot ?e146)))
(let (?e670 (bvand ?e160 ?e669))
(let (?e671 (bvand ?e173 ?e670))
(let (?e672 (bvand ?e179 ?e671))
(let (?e673 (bvand ?e185 ?e672))
(let (?e674 (bvand ?e191 ?e673))
(let (?e675 (bvand ?e226 ?e674))
(let (?e676 (bvand ?e232 ?e675))
(let (?e677 (bvand ?e238 ?e676))
(let (?e678 (bvand ?e245 ?e677))
(let (?e679 (bvand ?e251 ?e678))
(let (?e680 (bvand ?e257 ?e679))
(let (?e681 (bvand ?e263 ?e680))
(let (?e682 (bvand reset_1 ?e681))
(let (?e683 (bvand (bvnot ?e269) ?e682))
(let (?e684 (bvand ?e283 ?e683))
(let (?e685 (bvand ?e296 ?e684))
(let (?e686 (bvand ?e302 ?e685))
(let (?e687 (bvand ?e308 ?e686))
(let (?e688 (bvand ?e314 ?e687))
(let (?e689 (bvand ?e349 ?e688))
(let (?e690 (bvand ?e355 ?e689))
(let (?e691 (bvand ?e361 ?e690))
(let (?e692 (bvand ?e368 ?e691))
(let (?e693 (bvand ?e374 ?e692))
(let (?e694 (bvand ?e380 ?e693))
(let (?e695 (bvand ?e386 ?e694))
(let (?e696 (bvand reset_2 ?e695))
(let (?e697 (bvand (bvnot ?e392) ?e696))
(let (?e698 (bvand ?e406 ?e697))
(let (?e699 (bvand ?e419 ?e698))
(let (?e700 (bvand ?e425 ?e699))
(let (?e701 (bvand ?e431 ?e700))
(let (?e702 (bvand ?e437 ?e701))
(let (?e703 (bvand ?e472 ?e702))
(let (?e704 (bvand ?e478 ?e703))
(let (?e705 (bvand ?e484 ?e704))
(let (?e706 (bvand ?e491 ?e705))
(let (?e707 (bvand ?e497 ?e706))
(let (?e708 (bvand ?e503 ?e707))
(let (?e709 (bvand ?e509 ?e708))
(let (?e710 (bvand reset_3 ?e709))
(let (?e711 (bvand (bvnot ?e515) ?e710))
(let (?e712 (bvand ?e529 ?e711))
(let (?e713 (bvand ?e542 ?e712))
(let (?e714 (bvand ?e548 ?e713))
(let (?e715 (bvand ?e554 ?e714))
(let (?e716 (bvand ?e560 ?e715))
(let (?e717 (bvand ?e595 ?e716))
(let (?e718 (bvand ?e601 ?e717))
(let (?e719 (bvand ?e607 ?e718))
(let (?e720 (bvand ?e614 ?e719))
(let (?e721 (bvand ?e620 ?e720))
(let (?e722 (bvand ?e626 ?e721))
(let (?e723 (bvand ?e632 ?e722))
(let (?e724 (bvand reset_4 ?e723))
(let (?e725 (bvand (bvnot ?e638) ?e724))
(let (?e726 (bvand ?e652 ?e725))
(let (?e727 (bvand ?e653 ?e726))
(let (?e728 (bvand ?e654 ?e727))
(let (?e729 (bvand ?e655 ?e728))
(let (?e730 (bvand ?e656 ?e729))
(let (?e731 (bvand ?e657 ?e730))
(let (?e732 (bvand ?e658 ?e731))
(let (?e733 (bvand ?e659 ?e732))
(let (?e734 (bvand ?e660 ?e733))
(let (?e735 (bvand ?e661 ?e734))
(let (?e736 (bvand ?e662 ?e735))
(let (?e737 (bvand ?e663 ?e736))
(let (?e738 (bvand reset_5 ?e737))
(let (?e739 (bvand (bvnot ?e668) ?e738))
(let (?e740 (bvand reset_5 ?e739))
(not (= ?e740 bv0[1]))
))))))))))))))))))))))))))))))))))))))))))))))))))))))))))))))))))))))))))))))))))))))))))))))))))))))))))))))))))))))))))))))))))))))))))))))))))))))))))))))))))))))))))))))))))))))))))))))))))))))))))))))))))))))))))))))))))))))))))))))))))))))))))))))))))))))))))))))))))))))))))))))))))))))))))))))))))))))))))))))))))))))))))))))))))))))))))))))))))))))))))))))))))))))))))))))))))))))))))))))))))))))))))))))))))))))))))))))))))))))))))))))))))))))))))))))))))))))))))))))))))))))))))))))))))))))))))))))))))))))))))))))))))))))))))))))))))))))))))))))))))))))))))))))))))))))))))))))))))))))))))))))))))))))))))))))))))))))))))))))))))))))))
